NAME (null)
ROWS
 N  OBJ
 E  c0      
 E  c1      
 E  c2      
 E  c3      
 E  c4      
 E  c5      
 E  c6      
 E  c7      
 E  c8      
 E  c9      
 E  c10     
 E  c11     
 E  c12     
 E  c13     
 E  c14     
 E  c15     
 L  c16     
 L  c17     
 L  c18     
 L  c19     
 L  c20     
 L  c21     
 L  c22     
 L  c23     
 L  c24     
 L  c25     
 L  c26     
 L  c27     
 E  c28     
 E  c29     
 E  c30     
 E  c31     
 E  c32     
 E  c33     
 E  c34     
 E  c35     
 E  c36     
 L  c37     
 L  c38     
 L  c39     
 L  c40     
 L  c41     
 L  c42     
 L  c43     
 L  c44     
 L  c45     
 L  c46     
 L  c47     
 L  c48     
 L  c49     
 L  c50     
 L  c51     
 L  c52     
 L  c53     
 L  c54     
 L  c55     
 L  c56     
 L  c57     
 L  c58     
 L  c59     
 L  c60     
 L  c61     
 L  c62     
 L  c63     
 L  c64     
 L  c65     
 L  c66     
 L  c67     
 L  c68     
 L  c69     
 L  c70     
 L  c71     
 L  c72     
 L  c73     
 L  c74     
 L  c75     
 L  c76     
 L  c77     
 L  c78     
 L  c79     
 L  c80     
 L  c81     
 L  c82     
 L  c83     
 L  c84     
 L  c85     
 L  c86     
 L  c87     
 L  c88     
 L  c89     
 L  c90     
 L  c91     
 L  c92     
 L  c93     
 L  c94     
 L  c95     
 L  c96     
 L  c97     
 L  c98     
 L  c99     
 L  c100    
 L  c101    
 L  c102    
 L  c103    
 L  c104    
 L  c105    
 L  c106    
 L  c107    
 L  c108    
 L  c109    
 L  c110    
 L  c111    
 L  c112    
 L  c113    
 L  c114    
 L  c115    
 L  c116    
 L  c117    
 L  c118    
 L  c119    
 L  c120    
 L  c121    
 L  c122    
 L  c123    
 L  c124    
 L  c125    
 L  c126    
 L  c127    
 L  c128    
 L  c129    
 L  c130    
 L  c131    
 L  c132    
 L  c133    
 L  c134    
 L  c135    
 L  c136    
 L  c137    
 L  c138    
COLUMNS
    MARKER    'MARKER'                 'INTORG'
    x_000     c0        1
    x_000     c3        -1
    x_000     c16       1
    x_000     c37       3
    x_000     c49       3
    x_000     c101      -1
    x_000     c102      -1
    x_000     c103      -1
    x_000     c112      1
    x_000     c129      -1
    x_000     c133      -1
    x_000     c137      -1
    x_001     c0        1
    x_001     c4        -1
    x_001     c17       1
    x_001     c38       3
    x_001     c53       3
    x_001     c105      -1
    x_001     c106      -1
    x_001     c107      -1
    x_001     c116      1
    x_001     c133      -1
    x_001     c137      -1
    x_002     c0        1
    x_002     c18       1
    x_002     c39       3
    x_002     c57       3
    x_002     c109      -1
    x_002     c110      -1
    x_002     c111      -1
    x_002     c120      1
    x_002     c137      -1
    x_010     c0        1
    x_010     c3        -1
    x_010     c19       1
    x_010     c40       3
    x_010     c50       3
    x_010     c76       -1
    x_010     c78       -1
    x_010     c113      1
    x_010     c129      -1
    x_010     c133      -1
    x_010     c137      -1
    x_011     c0        1
    x_011     c4        -1
    x_011     c20       1
    x_011     c41       3
    x_011     c54       3
    x_011     c80       -1
    x_011     c82       -1
    x_011     c117      1
    x_011     c133      -1
    x_011     c137      -1
    x_012     c0        1
    x_012     c21       1
    x_012     c42       3
    x_012     c58       3
    x_012     c84       -1
    x_012     c86       -1
    x_012     c121      1
    x_012     c137      -1
    x_100     c1        1
    x_100     c5        -1
    x_100     c22       1
    x_100     c43       3
    x_100     c51       3
    x_100     c61       3
    x_100     c88       -1
    x_100     c114      1
    x_101     c1        1
    x_101     c6        -1
    x_101     c23       1
    x_101     c44       3
    x_101     c55       3
    x_101     c62       3
    x_101     c92       -1
    x_101     c118      1
    x_102     c1        1
    x_102     c24       1
    x_102     c45       3
    x_102     c59       3
    x_102     c63       3
    x_102     c96       -1
    x_102     c122      1
    x_200     c2        1
    x_200     c3        -1
    x_200     c10       1
    x_200     c13       1
    x_200     c25       1
    x_200     c46       3
    x_200     c52       3
    x_200     c76       -1
    x_200     c78       -1
    x_200     c115      1
    x_200     c129      -1
    x_200     c133      -1
    x_200     c137      -1
    x_201     c2        1
    x_201     c4        -1
    x_201     c13       1
    x_201     c26       1
    x_201     c47       3
    x_201     c56       3
    x_201     c80       -1
    x_201     c82       -1
    x_201     c119      1
    x_201     c133      -1
    x_201     c137      -1
    x_202     c2        1
    x_202     c27       1
    x_202     c48       3
    x_202     c60       3
    x_202     c84       -1
    x_202     c86       -1
    x_202     c123      1
    x_202     c137      -1
    y_000     c64       -1
    y_000     c89       -1
    y_000     c91       -1
    y_000     c124      1
    y_000     c127      3
    y_001     c68       -1
    y_001     c93       -1
    y_001     c95       -1
    y_001     c125      1
    y_001     c131      3
    y_002     c72       -1
    y_002     c97       -1
    y_002     c99       -1
    y_002     c126      1
    y_002     c135      3
    y_010     c65       -1
    y_010     c67       -1
    y_010     c124      1
    y_010     c128      4
    y_011     c69       -1
    y_011     c71       -1
    y_011     c125      1
    y_011     c132      4
    y_012     c73       -1
    y_012     c75       -1
    y_012     c126      1
    y_012     c136      4
    y_100     c64       -1
    y_100     c66       -1
    y_100     c89       -1
    y_100     c91       -1
    y_100     c124      1
    y_100     c129      5
    y_101     c68       -1
    y_101     c70       -1
    y_101     c93       -1
    y_101     c95       -1
    y_101     c125      1
    y_101     c133      5
    y_102     c72       -1
    y_102     c74       -1
    y_102     c97       -1
    y_102     c99       -1
    y_102     c126      1
    y_102     c137      5
    y_200     c65       -1
    y_200     c67       -1
    y_200     c124      1
    y_200     c130      5
    y_201     c69       -1
    y_201     c71       -1
    y_201     c125      1
    y_201     c134      5
    y_202     c73       -1
    y_202     c75       -1
    y_202     c126      1
    y_202     c138      5
    z1_000    c64       1
    z1_000    c112      -1
    z2_000    c76       3
    z2_000    c112      -1
    z3_000    c88       2
    z3_000    c112      -1
    z3_000    c127      1
    z4_000    c100      2
    z4_000    c112      -1
    z4_000    c127      1
    z1_001    c68       1
    z1_001    c116      -1
    z2_001    c80       3
    z2_001    c116      -1
    z3_001    c92       2
    z3_001    c116      -1
    z3_001    c131      1
    z4_001    c104      2
    z4_001    c116      -1
    z4_001    c131      1
    z1_002    c72       1
    z1_002    c120      -1
    z2_002    c84       3
    z2_002    c120      -1
    z3_002    c96       2
    z3_002    c120      -1
    z3_002    c135      1
    z4_002    c108      2
    z4_002    c120      -1
    z4_002    c135      1
    z1_010    c65       1
    z1_010    c113      -1
    z2_010    c77       3
    z2_010    c113      -1
    z3_010    c89       2
    z3_010    c113      -1
    z3_010    c128      1
    z4_010    c101      2
    z4_010    c113      -1
    z4_010    c128      1
    z1_011    c69       1
    z1_011    c117      -1
    z2_011    c81       3
    z2_011    c117      -1
    z3_011    c93       2
    z3_011    c117      -1
    z3_011    c132      1
    z4_011    c105      2
    z4_011    c117      -1
    z4_011    c132      1
    z1_012    c73       1
    z1_012    c121      -1
    z2_012    c85       3
    z2_012    c121      -1
    z3_012    c97       2
    z3_012    c121      -1
    z3_012    c136      1
    z4_012    c109      2
    z4_012    c121      -1
    z4_012    c136      1
    z1_100    c66       1
    z1_100    c114      -1
    z2_100    c78       3
    z2_100    c114      -1
    z3_100    c90       2
    z3_100    c114      -1
    z3_100    c129      1
    z4_100    c102      2
    z4_100    c114      -1
    z4_100    c129      1
    z1_101    c70       1
    z1_101    c118      -1
    z2_101    c82       3
    z2_101    c118      -1
    z3_101    c94       2
    z3_101    c118      -1
    z3_101    c133      1
    z4_101    c106      2
    z4_101    c118      -1
    z4_101    c133      1
    z1_102    c74       1
    z1_102    c122      -1
    z2_102    c86       3
    z2_102    c122      -1
    z3_102    c98       2
    z3_102    c122      -1
    z3_102    c137      1
    z4_102    c110      2
    z4_102    c122      -1
    z4_102    c137      1
    z1_200    c67       1
    z1_200    c115      -1
    z2_200    c79       3
    z2_200    c115      -1
    z3_200    c91       2
    z3_200    c115      -1
    z3_200    c130      1
    z4_200    c103      2
    z4_200    c115      -1
    z4_200    c130      1
    z1_201    c71       1
    z1_201    c119      -1
    z2_201    c83       3
    z2_201    c119      -1
    z3_201    c95       2
    z3_201    c119      -1
    z3_201    c134      1
    z4_201    c107      2
    z4_201    c119      -1
    z4_201    c134      1
    z1_202    c75       1
    z1_202    c123      -1
    z2_202    c87       3
    z2_202    c123      -1
    z3_202    c99       2
    z3_202    c123      -1
    z3_202    c138      1
    z4_202    c111      2
    z4_202    c123      -1
    z4_202    c138      1
    u_000     c16       -1
    u_000     c28       1
    u_001     c17       -1
    u_001     c31       1
    u_002     c18       -1
    u_002     c34       1
    u_010     c7        -1
    u_010     c19       -1
    u_010     c28       1
    u_011     c10       -1
    u_011     c20       -1
    u_011     c31       1
    u_012     c13       -1
    u_012     c21       -1
    u_012     c34       1
    u_100     c22       -1
    u_100     c29       1
    u_101     c23       -1
    u_101     c32       1
    u_102     c24       -1
    u_102     c35       1
    u_200     c25       -1
    u_200     c30       1
    u_201     c26       -1
    u_201     c33       1
    u_202     c27       -1
    u_202     c36       1
    MARKER    'MARKER'                 'INTEND'
    h_20      c3        1
    h_20      c49       -1
    h_20      c50       -1
    h_20      c51       -1
    h_20      c52       -1
    h_21      c3        -1
    h_21      c4        1
    h_21      c53       -1
    h_21      c54       -1
    h_21      c55       -1
    h_21      c56       -1
    h_22      c4        -1
    h_22      c57       -1
    h_22      c58       -1
    h_22      c59       -1
    h_22      c60       -1
    h_30      c5        1
    h_30      c61       -1
    h_31      c5        -1
    h_31      c6        1
    h_31      c62       -1
    h_32      c6        -1
    h_32      c63       -1
    e_0       OBJ       1
    e_0       c127      -1
    e_0       c128      -1
    e_0       c129      -1
    e_0       c130      -1
    e_1       OBJ       1
    e_1       c131      -1
    e_1       c132      -1
    e_1       c133      -1
    e_1       c134      -1
    e_2       OBJ       1
    e_2       c135      -1
    e_2       c136      -1
    e_2       c137      -1
    e_2       c138      -1
RHS
    RHS1      c0        1
    RHS1      c1        1
    RHS1      c2        1
    RHS1      c28       1
    RHS1      c29       1
    RHS1      c30       1
    RHS1      c31       1
    RHS1      c32       1
    RHS1      c33       1
    RHS1      c34       1
    RHS1      c35       1
    RHS1      c36       1
    RHS1      c37       4
    RHS1      c38       4
    RHS1      c39       4
    RHS1      c40       5
    RHS1      c41       5
    RHS1      c42       5
    RHS1      c43       4
    RHS1      c44       4
    RHS1      c45       4
    RHS1      c46       5
    RHS1      c47       5
    RHS1      c48       5
    RHS1      c49       2
    RHS1      c50       3
    RHS1      c51       2
    RHS1      c52       3
    RHS1      c53       2
    RHS1      c54       3
    RHS1      c55       2
    RHS1      c56       3
    RHS1      c57       2
    RHS1      c58       3
    RHS1      c59       2
    RHS1      c60       3
    RHS1      c61       2
    RHS1      c62       2
    RHS1      c63       2
    RHS1      c76       1
    RHS1      c77       1
    RHS1      c79       1
    RHS1      c80       1
    RHS1      c81       1
    RHS1      c83       1
    RHS1      c84       1
    RHS1      c85       1
    RHS1      c87       1
    RHS1      c124      1
    RHS1      c125      1
    RHS1      c126      1
BOUNDS
 BV BND1      x_000   
 BV BND1      x_001   
 BV BND1      x_002   
 BV BND1      x_010   
 BV BND1      x_011   
 BV BND1      x_012   
 BV BND1      x_100   
 BV BND1      x_101   
 BV BND1      x_102   
 BV BND1      x_200   
 BV BND1      x_201   
 BV BND1      x_202   
 BV BND1      y_000   
 BV BND1      y_001   
 BV BND1      y_002   
 BV BND1      y_010   
 BV BND1      y_011   
 BV BND1      y_012   
 BV BND1      y_100   
 BV BND1      y_101   
 BV BND1      y_102   
 BV BND1      y_200   
 BV BND1      y_201   
 BV BND1      y_202   
 BV BND1      z1_000  
 BV BND1      z2_000  
 BV BND1      z3_000  
 BV BND1      z4_000  
 BV BND1      z1_001  
 BV BND1      z2_001  
 BV BND1      z3_001  
 BV BND1      z4_001  
 BV BND1      z1_002  
 BV BND1      z2_002  
 BV BND1      z3_002  
 BV BND1      z4_002  
 BV BND1      z1_010  
 BV BND1      z2_010  
 BV BND1      z3_010  
 BV BND1      z4_010  
 BV BND1      z1_011  
 BV BND1      z2_011  
 BV BND1      z3_011  
 BV BND1      z4_011  
 BV BND1      z1_012  
 BV BND1      z2_012  
 BV BND1      z3_012  
 BV BND1      z4_012  
 BV BND1      z1_100  
 BV BND1      z2_100  
 BV BND1      z3_100  
 BV BND1      z4_100  
 BV BND1      z1_101  
 BV BND1      z2_101  
 BV BND1      z3_101  
 BV BND1      z4_101  
 BV BND1      z1_102  
 BV BND1      z2_102  
 BV BND1      z3_102  
 BV BND1      z4_102  
 BV BND1      z1_200  
 BV BND1      z2_200  
 BV BND1      z3_200  
 BV BND1      z4_200  
 BV BND1      z1_201  
 BV BND1      z2_201  
 BV BND1      z3_201  
 BV BND1      z4_201  
 BV BND1      z1_202  
 BV BND1      z2_202  
 BV BND1      z3_202  
 BV BND1      z4_202  
 BV BND1      u_000   
 BV BND1      u_001   
 BV BND1      u_002   
 BV BND1      u_010   
 BV BND1      u_011   
 BV BND1      u_012   
 BV BND1      u_100   
 BV BND1      u_101   
 BV BND1      u_102   
 BV BND1      u_200   
 BV BND1      u_201   
 BV BND1      u_202   
 FX BND1      h_20      3
 UP BND1      h_21      3
 UP BND1      h_22      3
 FX BND1      h_30      3
 UP BND1      h_31      3
 UP BND1      h_32      3
 UP BND1      e_0       9
 UP BND1      e_1       9
 UP BND1      e_2       9
ENDATA
